Generated POSCAR
1.0
12.1360900000 0.0000000000 0.0000000000
0.0000000000 12.1360900000 0.0000000000
0.0000000000 0.0000000000 12.1360900000
H O
128 64
Cartesian
11.1994130000 3.6142990000 2.9983740000
10.7754950000 5.3253780000 6.3161170000
12.0401870000 11.5712700000 11.0181640000
9.4647360000 1.2564940000 5.5835270000
6.1878710000 2.3817370000 2.0798130000
0.3534990000 5.7678490000 4.1189940000
7.7315890000 0.5142360000 3.4579740000
5.2557840000 8.7785990000 4.5640280000
2.2252440000 6.4196790000 4.9186410000
5.9631810000 6.7218140000 10.4911500000
11.0680180000 11.0029030000 3.3789160000
3.7396780000 11.9589100000 10.4599130000
3.2866040000 5.7362590000 2.3060020000
1.0507580000 6.3887300000 11.8005070000
1.4711560000 2.8042140000 5.4741270000
11.8750110000 9.7932500000 4.4684230000
2.4001650000 9.5176170000 0.8959360000
0.5967890000 1.4169350000 7.7350210000
6.3565330000 11.2949180000 6.9301450000
3.1365300000 3.1397310000 4.0426330000
3.2132760000 11.6560020000 4.0073610000
8.2107430000 10.4863620000 0.5853260000
4.6610630000 9.3131240000 0.3403260000
5.1830070000 8.8995470000 2.3582220000
9.3177140000 3.9459940000 7.6884070000
5.2390230000 9.8538290000 7.8654420000
3.1655900000 5.9522680000 7.0626070000
10.4120980000 8.3498510000 6.9612410000
9.3643190000 5.9883320000 3.7935870000
9.3216160000 3.4397640000 11.3812080000
3.3611880000 9.7192690000 3.2835250000
8.9282820000 2.6971180000 4.4329710000
1.4121090000 2.6394840000 2.4296530000
8.5113640000 9.2507270000 7.6880050000
3.5183350000 4.2371950000 7.8070290000
9.5532120000 4.0353000000 1.0712810000
6.1713740000 4.5241430000 10.0825670000
7.1654470000 8.1480800000 10.4236150000
11.7502940000 8.4750250000 2.3911290000
0.5203720000 2.0202200000 10.7459680000
5.8123330000 3.7256330000 6.9896440000
5.9952870000 5.4600350000 1.8338810000
11.4402210000 11.5984810000 7.9026140000
5.0471990000 0.0431680000 5.4217950000
1.7213080000 7.6008470000 9.0065520000
5.1879710000 0.3058910000 12.0053330000
5.1107080000 6.1158270000 4.3471260000
5.5643870000 5.6871500000 6.9853520000
8.5288600000 11.8783650000 7.1980020000
2.4402670000 3.3558770000 10.9602480000
3.7759920000 3.9643500000 0.8193380000
6.9030900000 10.4086230000 11.1309950000
8.7525070000 9.8125290000 10.0170480000
1.3535590000 9.9642350000 9.5156670000
7.5415860000 4.2069830000 5.5104420000
6.7560210000 2.1549370000 10.2145510000
8.4801830000 9.7880920000 3.0771430000
3.4929300000 6.6211330000 10.8152150000
11.1300280000 5.8671890000 10.7950350000
3.3778800000 0.5445040000 8.0981350000
8.6231010000 6.3894400000 9.8017530000
2.1629810000 9.7709350000 5.2032300000
10.5216020000 11.1312620000 5.8658670000
0.1674160000 0.7354910000 2.0100890000
11.4104140000 2.5877750000 1.8921650000
9.4056320000 4.8322600000 6.0539310000
11.2515820000 10.2556830000 10.5508230000
10.2031400000 1.2381330000 7.1914990000
6.8700600000 3.3121590000 1.0849530000
0.0562720000 4.4852620000 4.7980960000
7.0528170000 11.8117940000 2.4294880000
6.6621750000 8.8983970000 4.7535500000
1.2989820000 7.6232520000 4.5127610000
6.9310670000 5.9889200000 11.4562810000
10.3730900000 11.1057540000 2.0367610000
3.0479000000 10.9070120000 9.4089510000
2.5209370000 5.8767160000 1.0990280000
1.2671770000 7.7223140000 0.3168490000
1.5976840000 4.2065040000 6.3627990000
0.9736390000 9.8106880000 3.3821510000
0.9280160000 10.1371940000 0.4408490000
11.8777300000 1.4148360000 8.9827080000
5.5734190000 10.3947040000 5.9970600000
4.3292950000 2.4131960000 4.6636820000
2.2755880000 11.3826010000 2.7375580000
9.4795690000 9.5963010000 1.1970500000
3.8680500000 10.6264030000 11.9603970000
6.5968650000 9.2481680000 1.5089870000
8.8459560000 2.3242460000 7.7271560000
4.3907980000 8.8024040000 8.7214240000
1.6265910000 6.1988150000 7.7137950000
11.8180210000 8.9836020000 7.0410140000
8.4640950000 6.1507020000 2.7322790000
10.0521180000 3.0452530000 9.9027930000
3.1815290000 8.0837600000 3.5642230000
10.0574200000 2.1179150000 3.5875980000
2.1401030000 3.9033230000 2.6761950000
7.9698610000 8.4531250000 6.4165100000
3.6096420000 2.6277350000 7.7782520000
8.2968180000 4.9696820000 0.7453660000
5.2033220000 3.2490670000 9.0989490000
6.2638750000 9.2509940000 9.6925850000
10.5831040000 7.5594160000 2.4800990000
11.2508180000 1.8916510000 11.1586550000
7.1066820000 4.1721130000 7.4939450000
6.5514360000 7.1655580000 1.2910320000
10.9987520000 10.0517320000 8.2946020000
5.2268330000 0.5690040000 3.8262690000
0.4021260000 7.4855580000 8.2403200000
4.0944340000 1.4125240000 0.1591030000
4.7846420000 4.5270130000 4.0533530000
5.0903590000 7.3498800000 7.3741660000
7.5656250000 12.0720210000 8.5402380000
0.9851550000 3.8924790000 10.6978370000
4.5859430000 3.5281950000 11.8465340000
7.2477040000 12.1353540000 11.2236590000
9.6518580000 8.5680340000 9.8816850000
1.9756900000 9.8402080000 7.8580700000
8.0504130000 4.2985980000 3.9143360000
8.1705210000 1.7677170000 10.3474180000
9.0509210000 8.5982310000 3.8825350000
4.1255530000 7.9568800000 10.8287890000
0.3878560000 5.9131930000 10.0482470000
3.4678720000 0.5700340000 6.5283420000
9.7671430000 6.1225780000 8.5752940000
2.9491720000 8.7478700000 6.1235390000
9.7881060000 10.4231420000 4.9541590000
0.5328060000 1.1813840000 0.5977820000
10.7042820000 3.1958150000 2.3394690000
9.9413410000 5.1659510000 6.8196550000
12.1217980000 10.6160320000 10.6403780000
9.3423950000 1.1188470000 6.5741220000
6.7995420000 3.1721620000 2.0245450000
11.7517170000 5.1857340000 4.4511760000
6.9114270000 0.1267510000 3.2329320000
5.9452200000 8.8058370000 5.1235730000
1.9778400000 6.9533380000 4.1806410000
6.8687770000 6.2096390000 10.5631710000
11.1581880000 11.4636510000 2.5384900000
3.6784620000 11.8932710000 9.3596780000
2.9066410000 5.2001860000 1.6845650000
1.7000350000 6.9802680000 0.1362590000
0.8804290000 3.3887890000 6.1172240000
0.6532620000 9.3106640000 4.1550670000
1.4481370000 9.6145930000 1.0858830000
11.8079360000 1.1984540000 8.1095260000
5.4141530000 11.0792200000 6.5097340000
3.8082970000 3.2719450000 4.8965570000
2.6041470000 10.9887820000 3.5275750000
8.6357100000 9.9280540000 1.3763440000
3.8530560000 9.6039840000 11.9931180000
5.8608260000 8.5886850000 1.3358470000
8.6264430000 3.2915810000 8.0606670000
5.1385700000 8.9903280000 8.2720380000
2.3265200000 5.4754880000 7.1914520000
11.3968510000 8.1150040000 7.2966200000
9.0274920000 6.6779580000 3.1484750000
9.7256190000 2.5553430000 10.7770610000
3.9151480000 8.6335470000 3.2167720000
9.2710610000 1.7877820000 4.0891300000
1.6413640000 3.2194300000 3.2035930000
8.7642720000 8.5395460000 7.0511180000
4.1729540000 3.4058500000 7.8900500000
9.0037480000 4.3897930000 0.4241540000
5.7112360000 3.4606910000 10.1696160000
6.9993020000 9.0832930000 10.3392970000
10.8655960000 8.2646580000 1.9359590000
11.9815980000 1.1955780000 10.9170380000
6.5141760000 4.3592080000 6.8770330000
6.6440020000 6.0238560000 1.3937760000
11.2879400000 10.7299380000 7.4798240000
4.6243490000 0.6241300000 4.6733520000
1.1122110000 6.9008740000 8.7356870000
4.2709640000 0.5467950000 11.9358840000
5.2607270000 5.3023860000 3.6864720000
4.8985260000 6.3183330000 6.9122520000
7.8106260000 11.4800540000 7.7259510000
1.3927580000 3.1301400000 10.5888710000
3.8874270000 3.2578630000 0.2653730000
7.1536620000 11.2299470000 11.8286460000
9.7098300000 9.5780770000 9.7755490000
2.0302420000 9.6378890000 8.9794170000
8.2889870000 4.1812520000 4.8973230000
7.3540380000 1.3419210000 10.1032510000
8.5422770000 9.5380900000 4.0780580000
4.2643280000 7.0476270000 10.5125960000
12.0662490000 5.5902390000 10.8222590000
3.0836680000 1.0690560000 7.2092170000
9.4831870000 6.7626580000 9.3713940000
2.5418770000 9.6569500000 6.0923410000
10.3297110000 11.0848840000 4.9776870000
0.6635780000 1.4054300000 1.4920030000
